p cnf 17 57
5 -6 -12 0
2 4 -8 0
-11 14 -15 0
-2 -6 -13 0
-5 -12 14 0
4 -12 14 0
4 6 -16 0
-1 -13 -15 0
-3 -4 13 0
-5 -14 15 0
2 -12 -15 0
3 -6 11 0
-4 9 16 0
1 6 -9 0
5 10 -15 0
7 10 15 0
-1 5 -6 0
-1 12 -17 0
3 16 17 0
5 10 15 0
-12 14 -17 0
-1 3 12 0
13 -15 -17 0
3 -4 10 0
2 -11 17 0
-11 14 -16 0
4 9 -12 0
-2 -10 12 0
1 3 6 0
14 16 17 0
-4 -9 -11 0
3 -13 16 0
1 7 -11 0
-3 9 12 0
3 -4 13 0
-6 7 10 0
-2 3 -4 0
7 -9 16 0
7 9 -10 0
-10 11 -12 0
1 -7 15 0
-2 -4 16 0
8 -13 17 0
3 5 -14 0
8 13 15 0
4 7 9 0
-6 14 -16 0
-8 9 -14 0
-7 -12 17 0
-6 12 -17 0
-2 10 -11 0
8 -13 -16 0
2 3 10 0
-2 6 -10 0
2 -4 10 0
3 -8 -16 0
14 -16 -17 0
